
(set-logic ALL) 

(declare-datatype MyList ((Nil) (Cons (head Real) (tail MyList)) )) 
(declare-fun l0 () MyList) 
(declare-fun l1 () MyList) 
(declare-fun l2 () MyList) 
(declare-fun l3 () MyList) 
(declare-fun i0 () Real) 
(declare-fun i1 () Real) 
(assert (or (= l0 Nil) (= l3 l1) (= l3 Nil) (= l2 l0)) )
(assert (is-Nil Nil) )
(assert (and (= l0 l1) (= l1 Nil) (= l3 Nil)) )
(assert (is-Nil Nil) )
(assert (is-Nil Nil) )
(assert (is-Nil Nil) )
(assert (is-Cons l1) )
(assert (and (= l2 l1) (is-Cons Nil)) )
(check-sat)
